50
    59    92    20    38    38    20    74    72    54    39    38    94    55    80    80    19    58    65    87     2    42     6    58    38    54     6    12    63     5    60    79    53    74    52     7    27     2    58    61    41    99    41    18    95    39    60    74    27    62    62
     5    10     9     5     2     9     1     8     3     3     8     5     6     8     4    10     9    10     8     8     9    10     3     4     4     9     7     9     9    10     4     2     1    10    10     8     6     7     8     2     1    10     5     1     9     4     2     6     7     1
   872   876   656  1296  1206  1403  1296   519   866   872  1335   722   924   522   988  1368   625  1133  1422   954   606   906  1337   534   712   706   935   873  1260   971  1452  1057   858  1057  1269   559   609  1062  1335   794   950  1169  1275  1289   947   517   894  1249  1025  1467
